1 3 100 100540.82
1 3 200 99537.63
1 3 300 99476.80
2 3 100 132112.79
2 3 200 134260.80
2 3 300 136598.19
3 3 100 142467.94
3 3 200 137062.53
3 3 300 141425.42
4 3 100 128276.96
4 3 200 120881.96
4 3 300 125652.26
5 3 100 108260.01
5 3 200 114527.28
5 3 300 115552.86
